6 55 59 3 64 48 47 1 16 63 21 43 1 26 30 39 23 19 1 42 57 53 14 33 62 25 61 17 9 1 12 54 4 31 18 58 1 13 44 29 2 28 15 36 27 22 8 41 37 1 7 46 49 34 1 20 52 24 35 5 1 11 10 38 60 56 50 45 40 51 32 1 6 55 59 3 64 48 47 1  (948)
Cost 1732.62

